Cost: 260
0-4-30-29-5-37-60-70-20-15-57-54-19-8-46-34-67-0
0-26-58-72-39-9-32-3-16-63-23-56-41-43-1-6-51-17-0
Cost: 260
0-26-58-72-39-9-32-3-16-63-23-56-41-43-1-6-51-17-0
0-67-34-46-8-19-54-57-15-20-70-60-37-5-29-30-4-0
Cost: 260
0-4-30-29-5-37-60-70-20-15-57-54-19-8-46-34-67-0
0-26-58-72-39-9-32-3-16-63-23-56-41-43-1-6-51-17-0
Cost: 260
0-17-51-6-1-43-41-56-23-63-16-3-32-9-39-72-58-26-0
0-4-30-29-5-37-60-70-20-15-57-54-19-8-46-34-67-0
Cost: 260
0-17-51-6-1-43-41-56-23-63-16-3-32-9-39-72-58-26-0
0-4-30-29-5-37-60-70-20-15-57-54-19-8-46-34-67-0
Cost: 260
0-26-58-72-39-9-32-3-16-63-23-56-41-43-1-6-51-17-0
0-4-30-29-5-37-60-70-20-15-57-54-19-8-46-34-67-0
Cost: 260
0-67-34-8-19-54-57-15-20-70-60-37-5-29-30-4-0
0-26-58-72-39-9-32-44-3-16-63-23-56-41-43-1-6-51-17-0
Cost: 260
0-26-58-72-39-9-32-3-16-63-23-56-41-43-1-6-51-17-0
0-4-30-29-5-37-60-70-20-15-57-54-19-8-46-34-67-0
Cost: 260
0-4-30-29-5-37-60-70-20-15-57-54-19-8-46-34-67-0
0-26-58-72-39-9-32-3-16-63-23-56-41-43-1-6-51-17-0
Cost: 260
0-67-34-8-19-54-57-15-20-70-60-37-5-29-30-4-0
0-26-58-72-39-9-32-44-3-16-63-23-56-41-43-1-6-51-17-0
Cost: 260
0-17-51-6-1-43-41-56-23-63-16-3-32-9-39-72-58-26-0
0-67-34-46-8-19-54-57-15-20-70-60-37-5-29-30-4-0
Cost: 260
0-17-51-6-1-43-41-56-23-63-16-3-32-9-39-72-58-26-0
0-4-30-29-5-37-60-70-20-15-57-54-19-8-46-34-67-0
Cost: 260
0-17-51-6-1-43-41-56-23-63-16-3-44-32-9-39-72-58-26-0
0-4-30-29-5-37-60-70-20-15-57-54-19-8-34-67-0
Cost: 260
0-67-34-8-19-54-57-15-20-70-60-37-5-29-30-4-0
0-17-51-6-1-43-41-56-23-63-16-3-44-32-9-39-72-58-26-0
Cost: 260
0-26-58-72-39-9-32-44-3-16-63-23-56-41-43-1-6-51-17-0
0-67-34-8-19-54-57-15-20-70-60-37-5-29-30-4-0
Cost: 260
0-4-30-29-5-37-60-70-20-15-57-54-19-8-34-67-0
0-17-51-6-1-43-41-56-23-63-16-3-44-32-9-39-72-58-26-0
Cost: 260
0-67-34-8-19-54-57-15-20-70-60-37-5-29-30-4-0
0-17-51-6-1-43-41-56-23-63-16-3-44-32-9-39-72-58-26-0
Cost: 261
0-17-51-6-1-43-41-56-23-63-16-3-44-32-9-39-58-26-0
0-67-34-8-19-54-57-15-20-70-60-37-5-29-30-4-75-0
Cost: 260
0-26-58-72-39-9-32-3-16-63-23-56-41-43-1-6-51-17-0
0-67-34-46-8-19-54-57-15-20-70-60-37-5-29-30-4-0
Cost: 260
0-4-30-29-5-37-60-70-20-15-57-54-19-8-34-67-0
0-17-51-6-1-43-41-56-23-63-16-3-44-32-9-39-72-58-26-0
Cost: 260
0-4-30-29-5-37-60-70-20-15-57-54-19-8-34-67-0
0-17-51-6-1-43-41-56-23-63-16-3-44-32-9-39-72-58-26-0
Cost: 260
0-26-58-72-39-9-32-3-16-63-23-56-41-43-1-6-51-17-0
0-67-34-46-8-19-54-57-15-20-70-60-37-5-29-30-4-0
Cost: 260
0-26-58-72-39-9-32-3-16-63-23-56-41-43-1-6-51-17-0
0-67-34-46-8-19-54-57-15-20-70-60-37-5-29-30-4-0
Cost: 260
0-26-58-72-39-9-32-3-16-63-23-56-41-43-1-6-51-17-0
0-67-34-46-8-19-54-57-15-20-70-60-37-5-29-30-4-0
Cost: 260
0-26-58-72-39-9-32-3-16-63-23-56-41-43-1-6-51-17-0
0-67-34-46-8-19-54-57-15-20-70-60-37-5-29-30-4-0
Cost: 260
0-26-58-72-39-9-32-3-16-63-23-56-41-43-1-6-51-17-0
0-67-34-46-8-19-54-57-15-20-70-60-37-5-29-30-4-0
Cost: 260
0-67-34-8-19-54-57-15-20-70-60-37-5-29-30-4-0
0-17-51-6-1-43-41-56-23-63-16-3-44-32-9-39-72-58-26-0
Cost: 260
0-17-51-6-1-43-41-56-23-63-16-3-44-32-9-39-72-58-26-0
0-4-30-29-5-37-60-70-20-15-57-54-19-8-34-67-0
Cost: 260
0-4-30-29-5-37-60-70-20-15-57-54-19-8-46-34-67-0
0-26-58-72-39-9-32-3-16-63-23-56-41-43-1-6-51-17-0
Cost: 260
0-4-30-29-5-37-60-70-20-15-57-54-19-8-46-34-67-0
0-17-51-6-1-43-41-56-23-63-16-3-32-9-39-72-58-26-0
Cost: 260
0-17-51-6-1-43-41-56-23-63-16-3-44-32-9-39-72-58-26-0
0-67-34-8-19-54-57-15-20-70-60-37-5-29-30-4-0
Cost: 260
0-4-30-29-5-37-60-70-20-15-57-54-19-8-46-34-67-0
0-26-58-72-39-9-32-3-16-63-23-56-41-43-1-6-51-17-0
Cost: 261
0-75-4-30-29-5-37-60-70-20-15-57-54-19-8-34-67-0
0-26-58-39-9-32-44-3-16-63-23-56-41-43-1-6-51-17-0
Cost: 260
0-4-30-29-5-37-60-70-20-15-57-54-19-8-46-34-67-0
0-17-51-6-1-43-41-56-23-63-16-3-32-9-39-72-58-26-0
Cost: 260
0-26-58-72-39-9-32-3-16-63-23-56-41-43-1-6-51-17-0
0-4-30-29-5-37-60-70-20-15-57-54-19-8-46-34-67-0
Cost: 260
0-26-58-72-39-9-32-3-16-63-23-56-41-43-1-6-51-17-0
0-4-30-29-5-37-60-70-20-15-57-54-19-8-46-34-67-0
Cost: 260
0-4-30-29-5-37-60-70-20-15-57-54-19-8-34-67-0
0-26-58-72-39-9-32-44-3-16-63-23-56-41-43-1-6-51-17-0
